db/data/28627153172206715815309669442143721432.z3.out
sat
-------------------
710.594044607
